c @top --> 105
c p10 --> 104
c p8@v4 --> 102
c p8@v3 --> 101
c p8@v2 --> 100
c p8@v0 --> 98
c p3@v4 --> 97
c p3@v3 --> 96
c p3@v2 --> 95
c p3@v0 --> 93
c p7@v2 --> 92
c p3@v1 --> 94
c p7@v0 --> 90
c p11@v1 --> 88
c p4 --> 86
c p15 --> 85
c p6@v4 --> 80
c p6@v1 --> 77
c p5@v2 --> 75
c p5@v0 --> 73
c p11@v2 --> 89
c p12@v9 --> 69
c p12@v6 --> 66
c p6@v5 --> 81
c p12@v5 --> 65
c p12@v4 --> 64
c p12@v3 --> 63
c p12@v1 --> 61
c p17@v7 --> 28
c p19@v1 --> 3
c p9@v1 --> 56
c p17@v4 --> 25
c p19@v5 --> 7
c p9@v4 --> 59
c p17@v1 --> 22
c p8@v1 --> 99
c p20@v5 --> 36
c p12@v2 --> 62
c p17@v0 --> 21
c p18@v1 --> 14
c p18@v3 --> 16
c p5@v1 --> 74
c p20@v8 --> 39
c p18@v2 --> 15
c p19@v0 --> 2
c p18@v5 --> 18
c p0@v0 --> 52
c p19@v4 --> 6
c p17@v5 --> 26
c p1@v0 --> 70
c p19@v8 --> 10
c p16@v1 --> 41
c p6@v3 --> 79
c p17@v8 --> 29
c p1@v1 --> 71
c p12@v7 --> 67
c p21 --> 48
c p18@v6 --> 19
c p13@v0 --> 49
c p18@v4 --> 17
c p19@v3 --> 5
c p19@v10 --> 12
c p18@v7 --> 20
c p19@v7 --> 9
c p19@v9 --> 11
c p18@v0 --> 13
c p7@v1 --> 91
c p17@v6 --> 27
c p17@v3 --> 24
c p20@v0 --> 31
c p6@v2 --> 78
c p20@v1 --> 32
c p19@v2 --> 4
c p13@v2 --> 51
c p1@v2 --> 72
c p20@v3 --> 34
c p12@v0 --> 60
c p0@v2 --> 54
c p11@v0 --> 87
c p17@v9 --> 30
c p20@v4 --> 35
c p20@v6 --> 37
c p8@v5 --> 103
c p20@v7 --> 38
c p9@v2 --> 57
c p12@v8 --> 68
c p16@v2 --> 42
c p20@v2 --> 33
c p14@v4 --> 47
c p14@v0 --> 43
c p6@v0 --> 76
c p19@v6 --> 8
c p14@v1 --> 44
c p14@v2 --> 45
c p14@v3 --> 46
c p2@v1 --> 83
c p9@v3 --> 58
c p17@v2 --> 23
c p13@v1 --> 50
c p2@v2 --> 84
c p2@v0 --> 82
c p16@v0 --> 40
c p0@v1 --> 53
c p22 --> 1
c p9@v0 --> 55
p cnf 105 463
-27 -68 0
-60 -30 0
-18 -38 0
-18 -36 0
-18 -37 0
-5 -20 0
-18 -34 0
-18 -35 0
-27 -60 0
-18 -32 0
-5 -14 0
-27 -61 0
-18 -33 0
-103 -80 0
-19 -12 0
-5 -16 0
-27 -62 0
-16 -3 0
-27 -63 0
-103 -78 0
-5 -15 0
-16 -7 0
-27 -67 0
-35 -20 0
-11 -20 0
-4 -20 0
-17 -33 0
-17 -34 0
-79 -102 0
-17 -35 0
-4 -16 0
-79 -103 0
-17 -36 0
-4 -15 0
-4 -14 0
-82 -54 0
-63 -28 0
-52 -83 0
-25 -66 0
-25 -67 0
-25 -68 0
-63 -26 0
-62 -30 0
-25 -63 0
-7 -14 0
-14 -3 0
-62 -28 0
-62 -29 0
-62 -21 0
-6 -20 0
-62 -25 0
-61 -30 0
-62 -26 0
-26 -67 0
-62 -24 0
-26 -66 0
-15 -7 0
-30 -67 0
-26 -64 0
-6 -16 0
-6 -15 0
-15 -3 0
-6 -14 0
-13 -12 0
-68 -30 0
-98 -80 0
-61 -29 0
-61 -28 0
-61 -26 0
-99 -76 0
-39 -14 0
-20 -7 0
-39 -16 0
-9 -20 0
-39 -15 0
-99 -80 0
-9 -14 0
-9 -15 0
-9 -16 0
-61 -25 0
-61 -24 0
-20 -3 0
-60 -29 0
-60 -25 0
-60 -26 0
-60 -28 0
-31 -13 0
-31 -20 0
-31 -19 0
-31 -18 0
-31 -17 0
-100 -76 0
-8 -16 0
-8 -14 0
-100 -80 0
-8 -15 0
-69 -26 0
-60 -24 0
-13 -34 0
-13 -33 0
-60 -22 0
-13 -36 0
-13 -35 0
-8 -20 0
-54 -83 0
-13 -37 0
-13 -38 0
-32 -13 0
-32 -17 0
-68 -26 0
-66 -30 0
-68 -28 0
-32 -20 0
-11 -14 0
-11 -15 0
-11 -16 0
-37 -17 0
-79 -100 0
-79 -98 0
-79 -99 0
-37 -20 0
-18 -12 0
-20 -33 0
-29 -63 0
-20 -34 0
-20 -36 0
-63 -30 0
-22 -62 0
-10 -16 0
-10 -14 0
-38 -17 0
-10 -15 0
-10 -20 0
-38 -20 0
-19 -34 0
-17 -12 0
-39 48 0
-19 -33 0
-19 -32 0
-19 -38 0
-2 -14 0
-19 -37 0
-77 -100 0
-2 -15 0
-19 -36 0
-103 -77 0
-25 -69 0
-2 -16 0
-19 -35 0
-103 -76 0
-2 -20 0
2 3 4 5 6 7 8 9 10 11 12 0
-2 -3 0
-2 -4 0
-2 -5 0
-2 -6 0
-2 -7 0
-2 -8 0
-2 -9 0
-2 -10 0
-2 -11 0
-2 -12 0
-3 -4 0
-3 -5 0
-3 -6 0
-3 -7 0
-3 -8 0
-3 -9 0
-3 -10 0
-3 -11 0
-3 -12 0
-4 -5 0
-4 -6 0
-4 -7 0
-4 -8 0
-4 -9 0
-4 -10 0
-4 -11 0
-4 -12 0
-5 -6 0
-5 -7 0
-5 -8 0
-5 -9 0
-5 -10 0
-5 -11 0
-5 -12 0
-6 -7 0
-6 -8 0
-6 -9 0
-6 -10 0
-6 -11 0
-6 -12 0
-7 -8 0
-7 -9 0
-7 -10 0
-7 -11 0
-7 -12 0
-8 -9 0
-8 -10 0
-8 -11 0
-8 -12 0
-9 -10 0
-9 -11 0
-9 -12 0
-10 -11 0
-10 -12 0
-11 -12 0
13 14 15 16 17 18 19 20 0
-13 -14 0
-13 -15 0
-13 -16 0
-13 -17 0
-13 -18 0
-13 -19 0
-13 -20 0
-14 -15 0
-14 -16 0
-14 -17 0
-14 -18 0
-14 -19 0
-14 -20 0
-15 -16 0
-15 -17 0
-15 -18 0
-15 -19 0
-15 -20 0
-16 -17 0
-16 -18 0
-16 -19 0
-16 -20 0
-17 -18 0
-17 -19 0
-17 -20 0
-18 -19 0
-18 -20 0
-19 -20 0
21 22 23 24 25 26 27 28 29 30 0
-21 -22 0
-21 -23 0
-21 -24 0
-21 -25 0
-21 -26 0
-21 -27 0
-21 -28 0
-21 -29 0
-21 -30 0
-22 -23 0
-22 -24 0
-22 -25 0
-22 -26 0
-22 -27 0
-22 -28 0
-22 -29 0
-22 -30 0
-23 -24 0
-23 -25 0
-23 -26 0
-23 -27 0
-23 -28 0
-23 -29 0
-23 -30 0
-24 -25 0
-24 -26 0
-24 -27 0
-24 -28 0
-24 -29 0
-24 -30 0
-25 -26 0
-25 -27 0
-25 -28 0
-25 -29 0
-25 -30 0
-26 -27 0
-26 -28 0
-26 -29 0
-26 -30 0
-27 -28 0
-27 -29 0
-27 -30 0
-28 -29 0
-28 -30 0
-29 -30 0
31 32 33 34 35 36 37 38 39 0
-31 -32 0
-31 -33 0
-31 -34 0
-31 -35 0
-31 -36 0
-31 -37 0
-31 -38 0
-31 -39 0
-32 -33 0
-32 -34 0
-32 -35 0
-32 -36 0
-32 -37 0
-32 -38 0
-32 -39 0
-33 -34 0
-33 -35 0
-33 -36 0
-33 -37 0
-33 -38 0
-33 -39 0
-34 -35 0
-34 -36 0
-34 -37 0
-34 -38 0
-34 -39 0
-35 -36 0
-35 -37 0
-35 -38 0
-35 -39 0
-36 -37 0
-36 -38 0
-36 -39 0
-37 -38 0
-37 -39 0
-38 -39 0
40 41 42 0
-40 -41 0
-40 -42 0
-41 -42 0
43 44 45 46 47 0
-43 -44 0
-43 -45 0
-43 -46 0
-43 -47 0
-44 -45 0
-44 -46 0
-44 -47 0
-45 -46 0
-45 -47 0
-46 -47 0
49 50 51 0
-49 -50 0
-49 -51 0
-50 -51 0
52 53 54 0
-52 -53 0
-52 -54 0
-53 -54 0
55 56 57 58 59 0
-55 -56 0
-55 -57 0
-55 -58 0
-55 -59 0
-56 -57 0
-56 -58 0
-56 -59 0
-57 -58 0
-57 -59 0
-58 -59 0
60 61 62 63 64 65 66 67 68 69 0
-60 -61 0
-60 -62 0
-60 -63 0
-60 -64 0
-60 -65 0
-60 -66 0
-60 -67 0
-60 -68 0
-60 -69 0
-61 -62 0
-61 -63 0
-61 -64 0
-61 -65 0
-61 -66 0
-61 -67 0
-61 -68 0
-61 -69 0
-62 -63 0
-62 -64 0
-62 -65 0
-62 -66 0
-62 -67 0
-62 -68 0
-62 -69 0
-63 -64 0
-63 -65 0
-63 -66 0
-63 -67 0
-63 -68 0
-63 -69 0
-64 -65 0
-64 -66 0
-64 -67 0
-64 -68 0
-64 -69 0
-65 -66 0
-65 -67 0
-65 -68 0
-65 -69 0
-66 -67 0
-66 -68 0
-66 -69 0
-67 -68 0
-67 -69 0
-68 -69 0
70 71 72 0
-70 -71 0
-70 -72 0
-71 -72 0
73 74 75 0
-73 -74 0
-73 -75 0
-74 -75 0
76 77 78 79 80 81 0
-76 -77 0
-76 -78 0
-76 -79 0
-76 -80 0
-76 -81 0
-77 -78 0
-77 -79 0
-77 -80 0
-77 -81 0
-78 -79 0
-78 -80 0
-78 -81 0
-79 -80 0
-79 -81 0
-80 -81 0
82 83 84 0
-82 -83 0
-82 -84 0
-83 -84 0
87 88 89 0
-87 -88 0
-87 -89 0
-88 -89 0
90 91 92 0
-90 -91 0
-90 -92 0
-91 -92 0
93 94 95 96 97 0
-93 -94 0
-93 -95 0
-93 -96 0
-93 -97 0
-94 -95 0
-94 -96 0
-94 -97 0
-95 -96 0
-95 -97 0
-96 -97 0
98 99 100 101 102 103 0
-98 -99 0
-98 -100 0
-98 -101 0
-98 -102 0
-98 -103 0
-99 -100 0
-99 -101 0
-99 -102 0
-99 -103 0
-100 -101 0
-100 -102 0
-100 -103 0
-101 -102 0
-101 -103 0
-102 -103 0
105 -105 0
